
n_res = 8;
rcap = [18, 19, 17, 20, 735, 793, 775, 792];
rtype = [1, 1, 1, 1, 2, 2, 2, 2];
n_tasks = 50;
modes =  [{1, 2, 3, 4, 5, 6}, {7, 8, 9, 10, 11, 12}, {13, 14, 15, 16, 17, 18}, {19, 20, 21, 22, 23, 24}, {25, 26, 27, 28, 29, 30}, {31, 32, 33, 34, 35, 36}, {37, 38, 39, 40, 41, 42}, {43, 44, 45, 46, 47, 48}, {49, 50, 51, 52, 53, 54}, {55, 56, 57, 58, 59, 60}, {61, 62, 63, 64, 65, 66}, {67, 68, 69, 70, 71, 72}, {73, 74, 75, 76, 77, 78}, {79, 80, 81, 82, 83, 84}, {85, 86, 87, 88, 89, 90}, {91, 92, 93, 94, 95, 96}, {97, 98, 99, 100, 101, 102}, {103, 104, 105, 106, 107, 108}, {109, 110, 111, 112, 113, 114}, {115, 116, 117, 118, 119, 120}, {121, 122, 123, 124, 125, 126}, {127, 128, 129, 130, 131, 132}, {133, 134, 135, 136, 137, 138}, {139, 140, 141, 142, 143, 144}, {145, 146, 147, 148, 149, 150}, {151, 152, 153, 154, 155, 156}, {157, 158, 159, 160, 161, 162}, {163, 164, 165, 166, 167, 168}, {169, 170, 171, 172, 173, 174}, {175, 176, 177, 178, 179, 180}, {181, 182, 183, 184, 185, 186}, {187, 188, 189, 190, 191, 192}, {193, 194, 195, 196, 197, 198}, {199, 200, 201, 202, 203, 204}, {205, 206, 207, 208, 209, 210}, {211, 212, 213, 214, 215, 216}, {217, 218, 219, 220, 221, 222}, {223, 224, 225, 226, 227, 228}, {229, 230, 231, 232, 233, 234}, {235, 236, 237, 238, 239, 240}, {241, 242, 243, 244, 245, 246}, {247, 248, 249, 250, 251, 252}, {253, 254, 255, 256, 257, 258}, {259, 260, 261, 262, 263, 264}, {265, 266, 267, 268, 269, 270}, {271, 272, 273, 274, 275, 276}, {277, 278, 279, 280, 281, 282}, {283, 284, 285, 286, 287, 288}, {289, 290, 291, 292, 293, 294}, {295, 296, 297, 298, 299, 300}];
succ =  [{49, 48, 46, 45, 43, 34, 21, 17, 16, 9}, {49, 48, 45, 35, 34, 33, 22, 17, 16, 14}, {48, 47, 34, 25, 21, 16, 14}, {47, 46, 44, 43, 29, 25, 21, 16}, {34, 33, 29, 23, 22, 21, 15}, {49, 48, 47, 46, 43, 40, 38, 33, 32, 27, 26, 23}, {49, 46, 44, 43, 40, 39, 38, 32, 29, 27, 26}, {46, 44, 43, 42, 30, 29, 28, 27, 23}, {47, 44, 41, 39, 32, 30, 28, 26}, {47, 44, 40, 33, 25, 23}, {45, 44, 43, 41, 40, 39, 28, 26}, {45, 44, 42, 40, 39, 38, 27, 26}, {32, 29, 28, 26, 23}, {46, 44, 43, 39, 37, 32, 28}, {46, 45, 43, 40, 39, 27, 26}, {40, 38, 27, 26, 23}, {44, 39, 38, 27, 26}, {45, 44, 43, 40, 38, 37, 36}, {48, 46, 45, 39, 37, 36}, {40, 39, 38, 37, 36}, {42, 40, 38, 36}, {40, 39, 38, 37}, {39, 37, 36}, {43, 38, 36}, {28}, {37, 36}, {41, 36}, {38, 36}, {45, 37}, {40, 37}, {41, 36}, {42}, {41}, {36}, {38}, {}, {}, {}, {}, {}, {}, {}, {}, {}, {}, {}, {}, {}, {}, {}];
n_opt = 300;
dur = [1, 5, 10, 11, 13, 18, 7, 12, 13, 22, 24, 27, 1, 5, 19, 28, 29, 30, 7, 17, 18, 19, 20, 30, 4, 9, 10, 19, 25, 28, 5, 11, 23, 28, 29, 30, 5, 15, 17, 20, 21, 30, 7, 12, 19, 22, 27, 28, 2, 4, 10, 16, 23, 27, 1, 4, 5, 6, 19, 20, 6, 8, 15, 16, 17, 23, 7, 12, 13, 20, 24, 29, 1, 3, 7, 10, 20, 30, 6, 7, 11, 12, 18, 27, 1, 7, 11, 19, 23, 30, 6, 10, 13, 18, 19, 24, 1, 10, 11, 19, 28, 29, 2, 13, 21, 22, 28, 30, 4, 15, 16, 20, 27, 29, 1, 3, 13, 17, 19, 23, 9, 17, 18, 26, 29, 30, 3, 5, 13, 14, 15, 21, 9, 13, 16, 22, 23, 26, 4, 10, 18, 19, 24, 25, 9, 12, 20, 24, 28, 29, 1, 2, 3, 6, 19, 22, 5, 7, 8, 15, 17, 26, 2, 13, 25, 26, 27, 28, 1, 2, 3, 4, 5, 8, 2, 3, 4, 20, 22, 25, 6, 7, 19, 20, 22, 23, 2, 4, 14, 27, 28, 29, 4, 9, 12, 13, 17, 26, 6, 8, 9, 19, 21, 27, 15, 16, 17, 20, 27, 30, 5, 6, 10, 13, 27, 29, 4, 6, 12, 17, 19, 20, 1, 2, 15, 24, 25, 26, 8, 14, 15, 18, 19, 27, 8, 11, 14, 20, 25, 26, 7, 10, 11, 14, 20, 22, 3, 4, 5, 12, 25, 27, 4, 9, 17, 20, 28, 30, 6, 10, 17, 18, 24, 28, 1, 3, 13, 14, 15, 19, 7, 16, 23, 25, 27, 28, 10, 11, 12, 13, 14, 17, 3, 4, 10, 18, 22, 29, 6, 7, 10, 13, 23, 27, 7, 12, 22, 23, 26, 28];
rreq = [|3, 3, 3, 2, 2, 2, 2, 2, 2, 2, 2, 2, 2, 2, 2, 2, 2, 2, 4, 4, 3, 3, 3, 2, 4, 3, 2, 2, 2, 1, 3, 3, 3, 3, 3, 3, 4, 3, 3, 3, 2, 2, 4, 4, 4, 4, 3, 3, 2, 2, 2, 2, 1, 1, 3, 3, 3, 3, 2, 2, 4, 4, 4, 4, 4, 4, 2, 2, 2, 2, 1, 1, 4, 4, 4, 4, 4, 4, 4, 3, 3, 3, 2, 1, 1, 1, 1, 1, 1, 1, 5, 3, 3, 2, 2, 1, 3, 3, 3, 2, 2, 2, 2, 2, 2, 2, 2, 2, 4, 3, 3, 3, 3, 3, 3, 3, 3, 3, 2, 2, 3, 3, 2, 2, 2, 1, 3, 3, 3, 3, 3, 3, 2, 2, 2, 2, 2, 2, 2, 2, 2, 1, 1, 1, 5, 4, 4, 3, 3, 3, 3, 2, 2, 2, 1, 1, 5, 4, 4, 3, 3, 3, 2, 2, 2, 1, 1, 1, 5, 4, 4, 4, 4, 4, 2, 2, 2, 2, 2, 2, 4, 4, 4, 3, 3, 3, 2, 2, 2, 2, 2, 2, 3, 3, 3, 3, 2, 2, 2, 2, 2, 2, 1, 1, 4, 4, 4, 4, 4, 4, 4, 3, 3, 2, 1, 1, 5, 4, 4, 4, 3, 3, 4, 4, 4, 4, 4, 4, 4, 3, 3, 2, 2, 2, 4, 4, 4, 4, 4, 4, 1, 1, 1, 1, 1, 1, 3, 3, 3, 2, 2, 2, 2, 2, 2, 2, 1, 1, 4, 4, 4, 4, 3, 3, 2, 2, 2, 1, 1, 1, 5, 4, 3, 3, 3, 2, 1, 1, 1, 1, 1, 1, 5, 5, 5, 5, 5, 5, 2, 2, 2, 2, 2, 2, 4, 3, 3, 2, 2, 2
 |5, 5, 5, 5, 5, 5, 4, 3, 3, 3, 3, 3, 4, 4, 3, 3, 3, 2, 2, 2, 2, 2, 1, 1, 4, 4, 4, 4, 4, 4, 2, 2, 2, 2, 2, 2, 4, 4, 4, 4, 3, 3, 2, 1, 1, 1, 1, 1, 2, 2, 2, 2, 2, 2, 2, 2, 2, 2, 2, 2, 4, 3, 3, 3, 2, 2, 4, 3, 3, 3, 3, 3, 4, 3, 3, 2, 2, 2, 5, 4, 4, 3, 2, 2, 2, 2, 2, 2, 2, 2, 3, 3, 3, 2, 2, 2, 2, 2, 2, 1, 1, 1, 4, 4, 3, 3, 1, 1, 4, 4, 4, 3, 2, 2, 4, 4, 4, 4, 4, 4, 3, 3, 3, 3, 2, 2, 3, 3, 3, 3, 3, 3, 3, 3, 3, 3, 3, 3, 4, 4, 4, 3, 2, 2, 2, 2, 2, 2, 2, 2, 2, 2, 2, 2, 1, 1, 2, 1, 1, 1, 1, 1, 5, 5, 5, 5, 5, 5, 2, 1, 1, 1, 1, 1, 5, 4, 4, 4, 3, 3, 3, 3, 3, 2, 2, 2, 2, 1, 1, 1, 1, 1, 4, 4, 4, 4, 4, 4, 4, 4, 4, 4, 3, 3, 4, 4, 4, 4, 4, 4, 4, 3, 3, 3, 3, 3, 4, 4, 4, 4, 3, 3, 3, 3, 2, 2, 1, 1, 1, 1, 1, 1, 1, 1, 2, 1, 1, 1, 1, 1, 3, 3, 3, 3, 2, 2, 2, 2, 2, 2, 2, 2, 3, 3, 3, 2, 2, 2, 4, 4, 4, 4, 4, 4, 1, 1, 1, 1, 1, 1, 4, 4, 4, 4, 4, 4, 5, 4, 3, 3, 3, 2, 4, 3, 3, 2, 2, 1, 1, 1, 1, 1, 1, 1, 3, 3, 3, 3, 3, 3
 |1, 1, 1, 1, 1, 1, 4, 3, 3, 2, 2, 2, 3, 2, 2, 2, 1, 1, 3, 2, 2, 2, 1, 1, 3, 2, 2, 2, 2, 2, 2, 2, 2, 2, 1, 1, 4, 4, 4, 4, 4, 4, 5, 4, 4, 3, 2, 2, 2, 2, 2, 2, 2, 2, 3, 3, 2, 2, 1, 1, 4, 3, 3, 3, 3, 3, 2, 1, 1, 1, 1, 1, 3, 3, 3, 3, 2, 2, 1, 1, 1, 1, 1, 1, 3, 3, 3, 2, 2, 1, 4, 4, 4, 4, 4, 4, 2, 2, 2, 2, 2, 2, 3, 2, 2, 2, 1, 1, 4, 3, 3, 3, 2, 2, 2, 2, 2, 2, 2, 2, 2, 2, 2, 2, 1, 1, 4, 4, 4, 4, 4, 4, 3, 2, 2, 2, 2, 2, 4, 3, 3, 3, 3, 3, 3, 3, 3, 3, 3, 3, 4, 4, 4, 4, 4, 4, 2, 2, 2, 2, 2, 2, 4, 4, 4, 4, 3, 3, 1, 1, 1, 1, 1, 1, 1, 1, 1, 1, 1, 1, 2, 2, 2, 2, 2, 2, 2, 1, 1, 1, 1, 1, 5, 4, 3, 3, 3, 2, 5, 4, 4, 3, 3, 2, 3, 2, 2, 2, 2, 2, 5, 4, 4, 3, 3, 2, 3, 3, 2, 2, 1, 1, 2, 2, 2, 2, 2, 2, 3, 3, 3, 2, 2, 2, 5, 4, 3, 3, 3, 2, 2, 2, 2, 2, 2, 2, 3, 3, 3, 3, 3, 3, 5, 5, 5, 5, 5, 5, 3, 3, 3, 3, 2, 2, 1, 1, 1, 1, 1, 1, 5, 4, 4, 4, 4, 4, 1, 1, 1, 1, 1, 1, 2, 1, 1, 1, 1, 1, 5, 4, 4, 3, 3, 2, 3, 3, 3, 3, 2, 2
 |4, 3, 3, 3, 3, 3, 3, 3, 3, 3, 3, 3, 5, 4, 4, 3, 3, 2, 4, 4, 4, 4, 4, 4, 1, 1, 1, 1, 1, 1, 3, 3, 2, 2, 1, 1, 5, 4, 4, 4, 4, 4, 3, 3, 3, 3, 3, 3, 3, 2, 2, 2, 1, 1, 3, 2, 2, 2, 1, 1, 4, 3, 3, 3, 3, 3, 4, 3, 3, 3, 3, 3, 4, 3, 2, 2, 2, 1, 4, 4, 4, 4, 4, 4, 5, 4, 4, 4, 3, 3, 5, 3, 3, 2, 2, 1, 5, 5, 5, 5, 5, 5, 4, 4, 4, 4, 4, 4, 3, 3, 3, 2, 1, 1, 5, 5, 5, 5, 5, 5, 4, 3, 3, 3, 3, 3, 5, 4, 4, 4, 4, 4, 2, 1, 1, 1, 1, 1, 5, 4, 3, 2, 2, 1, 2, 2, 2, 2, 2, 2, 5, 4, 3, 3, 2, 2, 2, 2, 2, 1, 1, 1, 5, 5, 5, 5, 5, 5, 4, 4, 3, 3, 2, 2, 3, 3, 3, 2, 1, 1, 2, 2, 2, 1, 1, 1, 4, 4, 4, 4, 4, 4, 4, 3, 3, 3, 2, 1, 5, 4, 4, 4, 3, 3, 4, 3, 3, 3, 2, 2, 5, 5, 5, 5, 5, 5, 3, 2, 2, 2, 1, 1, 5, 5, 5, 5, 5, 5, 3, 3, 3, 3, 3, 3, 4, 3, 2, 2, 2, 1, 4, 4, 4, 4, 4, 4, 5, 5, 5, 5, 5, 5, 5, 3, 3, 3, 1, 1, 1, 1, 1, 1, 1, 1, 5, 4, 4, 4, 4, 4, 3, 3, 3, 2, 2, 2, 1, 1, 1, 1, 1, 1, 2, 2, 2, 2, 1, 1, 5, 4, 4, 3, 3, 3, 3, 2, 2, 2, 2, 2
 |23, 18, 15, 14, 10, 9, 24, 20, 19, 16, 9, 7, 27, 26, 25, 23, 23, 21, 26, 20, 16, 11, 9, 4, 17, 16, 15, 12, 9, 8, 18, 18, 18, 17, 16, 16, 23, 17, 16, 9, 6, 4, 15, 14, 14, 12, 11, 10, 14, 11, 9, 7, 7, 5, 25, 22, 21, 17, 16, 14, 15, 15, 11, 8, 6, 5, 18, 18, 17, 15, 15, 14, 24, 24, 22, 21, 20, 19, 26, 25, 25, 25, 24, 24, 19, 18, 16, 16, 13, 13, 20, 19, 19, 19, 18, 18, 15, 14, 10, 10, 8, 5, 18, 16, 16, 15, 15, 14, 27, 23, 19, 16, 14, 9, 16, 12, 10, 7, 5, 4, 21, 19, 14, 9, 7, 2, 26, 21, 19, 14, 8, 7, 14, 13, 11, 11, 10, 9, 9, 8, 8, 5, 4, 3, 26, 24, 21, 18, 15, 15, 24, 24, 18, 18, 15, 12, 23, 20, 20, 17, 17, 14, 16, 15, 15, 13, 12, 12, 26, 19, 17, 14, 8, 6, 18, 16, 15, 14, 13, 13, 1, 1, 1, 1, 1, 1, 11, 10, 8, 6, 5, 4, 28, 25, 23, 21, 18, 17, 22, 15, 12, 10, 9, 6, 7, 6, 6, 6, 5, 4, 18, 17, 17, 16, 15, 14, 13, 12, 11, 8, 6, 5, 22, 18, 14, 12, 9, 4, 27, 27, 27, 26, 26, 26, 21, 21, 19, 18, 17, 16, 25, 22, 21, 21, 20, 18, 23, 23, 20, 19, 17, 14, 22, 18, 13, 11, 7, 2, 6, 5, 4, 4, 2, 1, 23, 22, 22, 22, 22, 22, 26, 22, 17, 16, 9, 7, 18, 15, 15, 13, 9, 9, 25, 24, 23, 22, 22, 21, 4, 3, 3, 3, 2, 2, 5, 4, 3, 2, 2, 1
 |15, 14, 13, 13, 11, 11, 27, 23, 23, 21, 19, 18, 20, 19, 19, 19, 19, 19, 8, 7, 5, 4, 3, 1, 27, 26, 21, 18, 16, 13, 24, 23, 22, 22, 22, 21, 29, 27, 26, 26, 25, 23, 23, 22, 20, 15, 11, 8, 27, 26, 24, 23, 22, 20, 26, 20, 15, 13, 9, 7, 13, 11, 10, 10, 8, 8, 29, 29, 28, 28, 28, 27, 22, 17, 15, 10, 8, 6, 16, 14, 13, 12, 11, 11, 23, 22, 21, 19, 18, 16, 4, 4, 4, 4, 4, 4, 27, 21, 20, 15, 11, 9, 18, 17, 14, 12, 11, 8, 8, 8, 8, 8, 8, 8, 14, 13, 13, 12, 12, 12, 30, 27, 25, 22, 21, 19, 6, 5, 5, 3, 3, 1, 4, 4, 4, 4, 4, 4, 26, 23, 19, 14, 10, 10, 18, 18, 17, 16, 15, 14, 12, 12, 12, 11, 11, 11, 11, 11, 7, 6, 3, 3, 20, 17, 16, 13, 11, 9, 19, 18, 15, 8, 4, 1, 28, 27, 26, 24, 23, 22, 24, 20, 18, 16, 12, 9, 5, 4, 3, 3, 2, 2, 29, 28, 28, 26, 25, 25, 23, 23, 23, 22, 22, 22, 28, 27, 27, 25, 22, 22, 29, 29, 28, 27, 26, 26, 30, 29, 29, 29, 29, 29, 22, 19, 15, 12, 9, 8, 11, 11, 7, 6, 3, 3, 21, 18, 18, 14, 9, 8, 21, 20, 18, 17, 16, 15, 15, 13, 10, 9, 7, 7, 12, 11, 8, 7, 6, 3, 25, 24, 23, 18, 17, 14, 11, 11, 11, 11, 11, 11, 11, 10, 9, 8, 5, 4, 27, 20, 18, 9, 7, 4, 26, 25, 21, 21, 18, 16, 30, 28, 27, 26, 25, 25, 12, 10, 8, 8, 6, 4
 |25, 22, 19, 13, 13, 8, 8, 7, 7, 7, 6, 5, 13, 12, 11, 10, 9, 8, 30, 25, 23, 20, 18, 13, 25, 22, 20, 18, 16, 15, 20, 16, 14, 9, 8, 6, 28, 27, 23, 22, 20, 16, 26, 25, 21, 20, 14, 13, 14, 14, 14, 14, 14, 14, 26, 25, 25, 23, 22, 21, 20, 17, 16, 16, 15, 14, 25, 25, 22, 22, 21, 18, 14, 13, 12, 12, 11, 11, 12, 12, 12, 12, 12, 12, 16, 16, 16, 15, 15, 15, 17, 16, 14, 13, 11, 11, 9, 9, 9, 8, 8, 8, 16, 15, 13, 12, 9, 8, 7, 7, 7, 6, 5, 5, 21, 20, 13, 13, 7, 5, 29, 29, 27, 27, 26, 24, 22, 20, 20, 17, 16, 14, 30, 27, 26, 24, 22, 21, 21, 21, 19, 15, 15, 11, 26, 26, 24, 21, 17, 15, 28, 27, 27, 26, 26, 26, 18, 13, 10, 8, 5, 1, 5, 4, 4, 4, 4, 4, 12, 12, 10, 9, 9, 7, 27, 26, 25, 24, 23, 21, 22, 20, 17, 15, 11, 9, 20, 18, 16, 14, 12, 9, 29, 28, 28, 28, 28, 28, 21, 20, 19, 18, 17, 17, 30, 27, 23, 21, 15, 13, 15, 13, 10, 8, 6, 5, 24, 18, 16, 14, 10, 8, 21, 16, 15, 11, 7, 2, 21, 17, 16, 13, 13, 10, 21, 18, 15, 14, 12, 10, 6, 5, 5, 3, 2, 2, 12, 12, 12, 11, 11, 10, 11, 10, 8, 6, 3, 2, 27, 24, 21, 19, 15, 15, 6, 6, 4, 4, 2, 2, 16, 16, 14, 13, 12, 12, 22, 17, 15, 13, 10, 9, 18, 15, 11, 10, 5, 1, 25, 23, 22, 20, 18, 14, 26, 24, 22, 21, 20, 20
 |27, 26, 24, 21, 20, 17, 14, 12, 10, 8, 5, 4, 24, 23, 22, 18, 16, 14, 22, 21, 15, 14, 6, 6, 24, 23, 23, 22, 22, 22, 8, 6, 6, 5, 4, 2, 27, 27, 26, 24, 23, 23, 29, 26, 26, 23, 21, 21, 29, 28, 26, 26, 23, 23, 11, 9, 8, 7, 6, 6, 19, 15, 15, 13, 11, 8, 28, 27, 25, 20, 20, 18, 24, 22, 22, 20, 19, 18, 21, 21, 21, 21, 21, 21, 23, 19, 19, 17, 15, 13, 15, 13, 13, 11, 10, 10, 5, 4, 4, 4, 2, 2, 13, 13, 13, 13, 13, 13, 14, 14, 14, 14, 14, 14, 24, 21, 14, 11, 5, 5, 28, 28, 26, 26, 25, 23, 26, 19, 16, 9, 9, 1, 23, 22, 17, 11, 10, 4, 24, 17, 16, 10, 9, 3, 27, 24, 19, 15, 12, 7, 23, 21, 20, 17, 16, 16, 15, 13, 12, 12, 10, 10, 17, 13, 13, 9, 6, 6, 18, 18, 15, 10, 8, 7, 20, 18, 17, 15, 13, 11, 20, 19, 17, 15, 12, 10, 28, 25, 20, 17, 10, 7, 22, 21, 21, 19, 19, 18, 17, 15, 11, 8, 4, 1, 25, 25, 25, 25, 25, 25, 24, 23, 21, 21, 19, 19, 13, 12, 12, 12, 12, 12, 17, 16, 15, 13, 11, 10, 11, 9, 9, 9, 7, 7, 9, 9, 9, 9, 9, 9, 21, 21, 20, 19, 18, 18, 15, 14, 11, 10, 8, 4, 28, 28, 28, 28, 28, 28, 29, 23, 20, 18, 16, 13, 21, 21, 20, 18, 16, 15, 14, 12, 9, 7, 5, 3, 21, 21, 21, 21, 21, 21, 2, 2, 2, 2, 2, 2, 22, 19, 14, 14, 8, 4, 26, 20, 18, 15, 11, 3|];